NAME : mar10_1000_0
COMMENT : Data set with 10 points
COMMENT : CIn-UFPE
COMMENT : Contributed by Marcelo Lacerda
TYPE : TSP
DIMENSION : 10
EDGE_WEIGHT_TYPE : EUC_2D
NODE_COORD_SECTION
1 785 758
2 618 698
3 12 281
4 274 794
5 280 368
6 29 528
7 632 661
8 606 554
9 270 170
10 819 492
EOF
